c Sudoku solution
p cnf 729 0
133 0
211 0
222 0
268 0
335 0
349 0
354 0
372 0
439 0
458 0
461 0
527 0
582 0
598 0
685 0
731 0
621 0
571 0
795 0
817 0
237 0
825 0
841 0
151 0
874 0
899 0
992 0
981 0
391 0
679 0
289 0
294 0
484 0
923 0
426 0
534 0
696 0
328 0
316 0
493 0
477 0
787 0
383 0
197 0
367 0
773 0
976 0
888 0
938 0
836 0
712 0
748 0
415 0
513 0
442 0
618 0
632 0
162 0
852 0
863 0
664 0
944 0
957 0
965 0
724 0
919 0
114 0
129 0
647 0
653 0
243 0
275 0
178 0
186 0
145 0
256 0
546 0
555 0
569 0
759 0
766 0
